2,1,14,2,7,3,10,2,12,3,3,2,6,3,15,3,1,1,13,3,11,2,5,3,8,4;6,1,7,1,7,2,2,2,4,2,10,3,15,2,5,2,13,2,12,5,9,4,1,3,11,3,3,4,14,5,8,5;8,1,6,2,12,2,9,2,9,3,14,4,3,3,15,4,10,5,13,4,2,5,11,4,4,5,5,4,1,5;3,1,12,1,8,2,5,1,14,3,7,5,2,4,10,4,4,4,6,5,15,5,13,5,1,4,11,5;10,1,14,1,9,1,13,1,4,1,2,3,7,4,15,1,4,3,12,4,6,4,11,1,1,2,8,3,9,5,3,5,5,5;
